10 10 3

0 153 59 262 196 161 390 97 394 94 
173 0 98 140 222 195 342 223 351 449 
168 73 0 314 209 62 266 354 320 90 
196 462 146 0 389 114 155 357 468 473 
246 271 123 290 0 395 171 136 323 72 
428 497 373 133 371 0 153 153 79 165 
370 383 191 410 78 152 0 262 417 217 
368 273 391 96 226 161 169 0 466 262 
291 309 85 69 443 288 393 75 0 158 
252 386 395 367 255 277 57 371 62 0 

264 0 4
264 1 2
264 2 6
264 3 0
264 4 5
264 5 8
264 6 2
264 7 1
264 8 6
264 9 3

